
;this file is automatically generated: Fri Oct 30 17:04:00 CST 2020

;declarations generated

(declare-fun type_8ff6dcf5_9e2f_4aaf_bcd5_8e7053b22704_Class29 ( Int) Bool)
(declare-fun type_8ff6dcf5_9e2f_4aaf_bcd5_8e7053b22704_Class28 ( Int) Bool)
(declare-fun type_8ff6dcf5_9e2f_4aaf_bcd5_8e7053b22704_Class27 ( Int) Bool)
(declare-fun type_8ff6dcf5_9e2f_4aaf_bcd5_8e7053b22704_Class26 ( Int) Bool)
(declare-fun type_8ff6dcf5_9e2f_4aaf_bcd5_8e7053b22704_Class25 ( Int) Bool)
(declare-fun type_8ff6dcf5_9e2f_4aaf_bcd5_8e7053b22704_Class24 ( Int) Bool)
(declare-fun type_8ff6dcf5_9e2f_4aaf_bcd5_8e7053b22704_Class23 ( Int) Bool)
(declare-fun type_8ff6dcf5_9e2f_4aaf_bcd5_8e7053b22704_Class22 ( Int) Bool)
(declare-fun type_8ff6dcf5_9e2f_4aaf_bcd5_8e7053b22704_Class21 ( Int) Bool)
(declare-fun type_8ff6dcf5_9e2f_4aaf_bcd5_8e7053b22704_Class20 ( Int) Bool)
(declare-fun type_8ff6dcf5_9e2f_4aaf_bcd5_8e7053b22704_Class39 ( Int) Bool)
(declare-fun type_8ff6dcf5_9e2f_4aaf_bcd5_8e7053b22704_Class38 ( Int) Bool)
(declare-fun type_8ff6dcf5_9e2f_4aaf_bcd5_8e7053b22704_Class37 ( Int) Bool)
(declare-fun type_8ff6dcf5_9e2f_4aaf_bcd5_8e7053b22704_Class36 ( Int) Bool)
(declare-fun type_8ff6dcf5_9e2f_4aaf_bcd5_8e7053b22704_Class35 ( Int) Bool)
(declare-fun type_8ff6dcf5_9e2f_4aaf_bcd5_8e7053b22704_Class34 ( Int) Bool)
(declare-fun type_8ff6dcf5_9e2f_4aaf_bcd5_8e7053b22704_Class33 ( Int) Bool)
(declare-fun type_8ff6dcf5_9e2f_4aaf_bcd5_8e7053b22704_Class32 ( Int) Bool)
(declare-fun type_8ff6dcf5_9e2f_4aaf_bcd5_8e7053b22704_Class31 ( Int) Bool)
(declare-fun type_8ff6dcf5_9e2f_4aaf_bcd5_8e7053b22704_Class30 ( Int) Bool)
(declare-fun oclExcludes ( Int Int) Bool)
(declare-fun type_8ff6dcf5_9e2f_4aaf_bcd5_8e7053b22704_Class19 ( Int) Bool)
(declare-fun type_8ff6dcf5_9e2f_4aaf_bcd5_8e7053b22704_Class18 ( Int) Bool)
(declare-fun type_8ff6dcf5_9e2f_4aaf_bcd5_8e7053b22704_Class17 ( Int) Bool)
(declare-fun type_8ff6dcf5_9e2f_4aaf_bcd5_8e7053b22704_Class16 ( Int) Bool)
(declare-fun type_8ff6dcf5_9e2f_4aaf_bcd5_8e7053b22704_Class15 ( Int) Bool)
(declare-fun type_8ff6dcf5_9e2f_4aaf_bcd5_8e7053b22704_Class14 ( Int) Bool)
(declare-fun type_8ff6dcf5_9e2f_4aaf_bcd5_8e7053b22704_Class13 ( Int) Bool)
(declare-fun type_8ff6dcf5_9e2f_4aaf_bcd5_8e7053b22704_Class12 ( Int) Bool)
(declare-fun type_8ff6dcf5_9e2f_4aaf_bcd5_8e7053b22704_Class11 ( Int) Bool)
(declare-fun type_8ff6dcf5_9e2f_4aaf_bcd5_8e7053b22704_Class10 ( Int) Bool)
(declare-fun Cardinality ( Int) Int)
(declare-fun class19_Class19IntAttr4 ( Int) Int)
(declare-fun type_8ff6dcf5_9e2f_4aaf_bcd5_8e7053b22704_Class49 ( Int) Bool)
(declare-fun type_8ff6dcf5_9e2f_4aaf_bcd5_8e7053b22704_Class48 ( Int) Bool)
(declare-fun type_8ff6dcf5_9e2f_4aaf_bcd5_8e7053b22704_Class47 ( Int) Bool)
(declare-fun type_8ff6dcf5_9e2f_4aaf_bcd5_8e7053b22704_Class46 ( Int) Bool)
(declare-fun type_8ff6dcf5_9e2f_4aaf_bcd5_8e7053b22704_Class45 ( Int) Bool)
(declare-fun type_8ff6dcf5_9e2f_4aaf_bcd5_8e7053b22704_Class44 ( Int) Bool)
(declare-fun type_8ff6dcf5_9e2f_4aaf_bcd5_8e7053b22704_Class43 ( Int) Bool)
(declare-fun type_8ff6dcf5_9e2f_4aaf_bcd5_8e7053b22704_Class42 ( Int) Bool)
(declare-fun type_8ff6dcf5_9e2f_4aaf_bcd5_8e7053b22704_Class41 ( Int) Bool)
(declare-fun type_8ff6dcf5_9e2f_4aaf_bcd5_8e7053b22704_Class40 ( Int) Bool)
(declare-fun type_8ff6dcf5_9e2f_4aaf_bcd5_8e7053b22704_Class55 ( Int) Bool)
(declare-fun type_8ff6dcf5_9e2f_4aaf_bcd5_8e7053b22704_Class54 ( Int) Bool)
(declare-fun type_8ff6dcf5_9e2f_4aaf_bcd5_8e7053b22704_Class53 ( Int) Bool)
(declare-fun type_8ff6dcf5_9e2f_4aaf_bcd5_8e7053b22704_Class52 ( Int) Bool)
(declare-fun type_8ff6dcf5_9e2f_4aaf_bcd5_8e7053b22704_Class51 ( Int) Bool)
(declare-fun type_8ff6dcf5_9e2f_4aaf_bcd5_8e7053b22704_Class50 ( Int) Bool)
(declare-fun oclSelect ( Int Bool) Int)
(declare-fun obj_96d9e49b_b7b8_414c_a12a_9185be021368 ( Int) Int)
(declare-fun Enum0 ( Int) Int)
(declare-fun Enum1 ( Int) Int)
(declare-fun Enum2 ( Int) Int)
(declare-fun container_ ( Int) Int)
(declare-fun type_8ff6dcf5_9e2f_4aaf_bcd5_8e7053b22704_Class0 ( Int) Bool)
(declare-fun oclIncludes ( Int Int) Bool)
(declare-fun type_8ff6dcf5_9e2f_4aaf_bcd5_8e7053b22704_Class2 ( Int) Bool)
(declare-fun type_8ff6dcf5_9e2f_4aaf_bcd5_8e7053b22704_Class1 ( Int) Bool)
(declare-fun type_8ff6dcf5_9e2f_4aaf_bcd5_8e7053b22704_Class4 ( Int) Bool)
(declare-fun type_8ff6dcf5_9e2f_4aaf_bcd5_8e7053b22704_Class3 ( Int) Bool)
(declare-fun type_8ff6dcf5_9e2f_4aaf_bcd5_8e7053b22704_Class6 ( Int) Bool)
(declare-fun type_8ff6dcf5_9e2f_4aaf_bcd5_8e7053b22704_Class5 ( Int) Bool)
(declare-fun type_8ff6dcf5_9e2f_4aaf_bcd5_8e7053b22704_Class8 ( Int) Bool)
(declare-fun type_8ff6dcf5_9e2f_4aaf_bcd5_8e7053b22704_Class7 ( Int) Bool)
(declare-fun type_8ff6dcf5_9e2f_4aaf_bcd5_8e7053b22704_Class9 ( Int) Bool)
(declare-fun ObjAt ( Int Int) Int)

;formula(s) generated
(assert (! (forall ((v Int)) (=> (and (and (and (and (and (and (and (and (and ( type_8ff6dcf5_9e2f_4aaf_bcd5_8e7053b22704_Class19 v )  ( type_8ff6dcf5_9e2f_4aaf_bcd5_8e7053b22704_Class45 v ) ) ( type_8ff6dcf5_9e2f_4aaf_bcd5_8e7053b22704_Class12 v ) ) ( type_8ff6dcf5_9e2f_4aaf_bcd5_8e7053b22704_Class55 v ) ) ( type_8ff6dcf5_9e2f_4aaf_bcd5_8e7053b22704_Class33 v ) ) ( type_8ff6dcf5_9e2f_4aaf_bcd5_8e7053b22704_Class22 v ) ) ( type_8ff6dcf5_9e2f_4aaf_bcd5_8e7053b22704_Class29 v ) ) ( type_8ff6dcf5_9e2f_4aaf_bcd5_8e7053b22704_Class39 v ) ) ( type_8ff6dcf5_9e2f_4aaf_bcd5_8e7053b22704_Class50 v ) ) ( type_8ff6dcf5_9e2f_4aaf_bcd5_8e7053b22704_Class41 v ) ) (= ( class19_Class19IntAttr4 ( obj_96d9e49b_b7b8_414c_a12a_9185be021368 v )  )  14))):named l0))
(assert (! (exists ((o Int)) ( type_8ff6dcf5_9e2f_4aaf_bcd5_8e7053b22704_Class0 ( obj_96d9e49b_b7b8_414c_a12a_9185be021368 o )  ) ):named c0))
(assert (! (exists ((o Int)) (and (and (and (and (and ( type_8ff6dcf5_9e2f_4aaf_bcd5_8e7053b22704_Class1 ( obj_96d9e49b_b7b8_414c_a12a_9185be021368 o )  )  ( type_8ff6dcf5_9e2f_4aaf_bcd5_8e7053b22704_Class45 ( obj_96d9e49b_b7b8_414c_a12a_9185be021368 o )  ) ) ( type_8ff6dcf5_9e2f_4aaf_bcd5_8e7053b22704_Class12 ( obj_96d9e49b_b7b8_414c_a12a_9185be021368 o )  ) ) ( type_8ff6dcf5_9e2f_4aaf_bcd5_8e7053b22704_Class33 ( obj_96d9e49b_b7b8_414c_a12a_9185be021368 o )  ) ) ( type_8ff6dcf5_9e2f_4aaf_bcd5_8e7053b22704_Class22 ( obj_96d9e49b_b7b8_414c_a12a_9185be021368 o )  ) ) ( type_8ff6dcf5_9e2f_4aaf_bcd5_8e7053b22704_Class39 ( obj_96d9e49b_b7b8_414c_a12a_9185be021368 o )  ) )):named c1))
(assert (! (exists ((o Int)) (and (and (and (and (and (and (and (and (and ( type_8ff6dcf5_9e2f_4aaf_bcd5_8e7053b22704_Class10 ( obj_96d9e49b_b7b8_414c_a12a_9185be021368 o )  )  ( type_8ff6dcf5_9e2f_4aaf_bcd5_8e7053b22704_Class45 ( obj_96d9e49b_b7b8_414c_a12a_9185be021368 o )  ) ) ( type_8ff6dcf5_9e2f_4aaf_bcd5_8e7053b22704_Class12 ( obj_96d9e49b_b7b8_414c_a12a_9185be021368 o )  ) ) ( type_8ff6dcf5_9e2f_4aaf_bcd5_8e7053b22704_Class55 ( obj_96d9e49b_b7b8_414c_a12a_9185be021368 o )  ) ) ( type_8ff6dcf5_9e2f_4aaf_bcd5_8e7053b22704_Class33 ( obj_96d9e49b_b7b8_414c_a12a_9185be021368 o )  ) ) ( type_8ff6dcf5_9e2f_4aaf_bcd5_8e7053b22704_Class22 ( obj_96d9e49b_b7b8_414c_a12a_9185be021368 o )  ) ) ( type_8ff6dcf5_9e2f_4aaf_bcd5_8e7053b22704_Class29 ( obj_96d9e49b_b7b8_414c_a12a_9185be021368 o )  ) ) ( type_8ff6dcf5_9e2f_4aaf_bcd5_8e7053b22704_Class39 ( obj_96d9e49b_b7b8_414c_a12a_9185be021368 o )  ) ) ( type_8ff6dcf5_9e2f_4aaf_bcd5_8e7053b22704_Class50 ( obj_96d9e49b_b7b8_414c_a12a_9185be021368 o )  ) ) ( type_8ff6dcf5_9e2f_4aaf_bcd5_8e7053b22704_Class41 ( obj_96d9e49b_b7b8_414c_a12a_9185be021368 o )  ) )):named c2))
(assert (! (exists ((o Int)) ( type_8ff6dcf5_9e2f_4aaf_bcd5_8e7053b22704_Class11 ( obj_96d9e49b_b7b8_414c_a12a_9185be021368 o )  ) ):named c3))
(assert (! (exists ((o Int)) (and (and (and ( type_8ff6dcf5_9e2f_4aaf_bcd5_8e7053b22704_Class12 ( obj_96d9e49b_b7b8_414c_a12a_9185be021368 o )  )  ( type_8ff6dcf5_9e2f_4aaf_bcd5_8e7053b22704_Class33 ( obj_96d9e49b_b7b8_414c_a12a_9185be021368 o )  ) ) ( type_8ff6dcf5_9e2f_4aaf_bcd5_8e7053b22704_Class22 ( obj_96d9e49b_b7b8_414c_a12a_9185be021368 o )  ) ) ( type_8ff6dcf5_9e2f_4aaf_bcd5_8e7053b22704_Class39 ( obj_96d9e49b_b7b8_414c_a12a_9185be021368 o )  ) )):named c4))
(assert (! (exists ((o Int)) (and (and (and (and (and (and (and (and (and ( type_8ff6dcf5_9e2f_4aaf_bcd5_8e7053b22704_Class13 ( obj_96d9e49b_b7b8_414c_a12a_9185be021368 o )  )  ( type_8ff6dcf5_9e2f_4aaf_bcd5_8e7053b22704_Class45 ( obj_96d9e49b_b7b8_414c_a12a_9185be021368 o )  ) ) ( type_8ff6dcf5_9e2f_4aaf_bcd5_8e7053b22704_Class12 ( obj_96d9e49b_b7b8_414c_a12a_9185be021368 o )  ) ) ( type_8ff6dcf5_9e2f_4aaf_bcd5_8e7053b22704_Class55 ( obj_96d9e49b_b7b8_414c_a12a_9185be021368 o )  ) ) ( type_8ff6dcf5_9e2f_4aaf_bcd5_8e7053b22704_Class33 ( obj_96d9e49b_b7b8_414c_a12a_9185be021368 o )  ) ) ( type_8ff6dcf5_9e2f_4aaf_bcd5_8e7053b22704_Class22 ( obj_96d9e49b_b7b8_414c_a12a_9185be021368 o )  ) ) ( type_8ff6dcf5_9e2f_4aaf_bcd5_8e7053b22704_Class29 ( obj_96d9e49b_b7b8_414c_a12a_9185be021368 o )  ) ) ( type_8ff6dcf5_9e2f_4aaf_bcd5_8e7053b22704_Class39 ( obj_96d9e49b_b7b8_414c_a12a_9185be021368 o )  ) ) ( type_8ff6dcf5_9e2f_4aaf_bcd5_8e7053b22704_Class50 ( obj_96d9e49b_b7b8_414c_a12a_9185be021368 o )  ) ) ( type_8ff6dcf5_9e2f_4aaf_bcd5_8e7053b22704_Class41 ( obj_96d9e49b_b7b8_414c_a12a_9185be021368 o )  ) )):named c5))
(assert (! (exists ((o Int)) (and (and (and (and (and (and (and (and (and ( type_8ff6dcf5_9e2f_4aaf_bcd5_8e7053b22704_Class14 ( obj_96d9e49b_b7b8_414c_a12a_9185be021368 o )  )  ( type_8ff6dcf5_9e2f_4aaf_bcd5_8e7053b22704_Class45 ( obj_96d9e49b_b7b8_414c_a12a_9185be021368 o )  ) ) ( type_8ff6dcf5_9e2f_4aaf_bcd5_8e7053b22704_Class12 ( obj_96d9e49b_b7b8_414c_a12a_9185be021368 o )  ) ) ( type_8ff6dcf5_9e2f_4aaf_bcd5_8e7053b22704_Class55 ( obj_96d9e49b_b7b8_414c_a12a_9185be021368 o )  ) ) ( type_8ff6dcf5_9e2f_4aaf_bcd5_8e7053b22704_Class33 ( obj_96d9e49b_b7b8_414c_a12a_9185be021368 o )  ) ) ( type_8ff6dcf5_9e2f_4aaf_bcd5_8e7053b22704_Class22 ( obj_96d9e49b_b7b8_414c_a12a_9185be021368 o )  ) ) ( type_8ff6dcf5_9e2f_4aaf_bcd5_8e7053b22704_Class29 ( obj_96d9e49b_b7b8_414c_a12a_9185be021368 o )  ) ) ( type_8ff6dcf5_9e2f_4aaf_bcd5_8e7053b22704_Class39 ( obj_96d9e49b_b7b8_414c_a12a_9185be021368 o )  ) ) ( type_8ff6dcf5_9e2f_4aaf_bcd5_8e7053b22704_Class50 ( obj_96d9e49b_b7b8_414c_a12a_9185be021368 o )  ) ) ( type_8ff6dcf5_9e2f_4aaf_bcd5_8e7053b22704_Class41 ( obj_96d9e49b_b7b8_414c_a12a_9185be021368 o )  ) )):named c6))
(assert (! (exists ((o Int)) ( type_8ff6dcf5_9e2f_4aaf_bcd5_8e7053b22704_Class15 ( obj_96d9e49b_b7b8_414c_a12a_9185be021368 o )  ) ):named c7))
(assert (! (exists ((o Int)) (and (and (and (and (and ( type_8ff6dcf5_9e2f_4aaf_bcd5_8e7053b22704_Class16 ( obj_96d9e49b_b7b8_414c_a12a_9185be021368 o )  )  ( type_8ff6dcf5_9e2f_4aaf_bcd5_8e7053b22704_Class45 ( obj_96d9e49b_b7b8_414c_a12a_9185be021368 o )  ) ) ( type_8ff6dcf5_9e2f_4aaf_bcd5_8e7053b22704_Class12 ( obj_96d9e49b_b7b8_414c_a12a_9185be021368 o )  ) ) ( type_8ff6dcf5_9e2f_4aaf_bcd5_8e7053b22704_Class33 ( obj_96d9e49b_b7b8_414c_a12a_9185be021368 o )  ) ) ( type_8ff6dcf5_9e2f_4aaf_bcd5_8e7053b22704_Class22 ( obj_96d9e49b_b7b8_414c_a12a_9185be021368 o )  ) ) ( type_8ff6dcf5_9e2f_4aaf_bcd5_8e7053b22704_Class39 ( obj_96d9e49b_b7b8_414c_a12a_9185be021368 o )  ) )):named c8))
(assert (! (exists ((o Int)) ( type_8ff6dcf5_9e2f_4aaf_bcd5_8e7053b22704_Class17 ( obj_96d9e49b_b7b8_414c_a12a_9185be021368 o )  ) ):named c9))
(assert (! (exists ((o Int)) (and (and (and ( type_8ff6dcf5_9e2f_4aaf_bcd5_8e7053b22704_Class18 ( obj_96d9e49b_b7b8_414c_a12a_9185be021368 o )  )  ( type_8ff6dcf5_9e2f_4aaf_bcd5_8e7053b22704_Class25 ( obj_96d9e49b_b7b8_414c_a12a_9185be021368 o )  ) ) ( type_8ff6dcf5_9e2f_4aaf_bcd5_8e7053b22704_Class24 ( obj_96d9e49b_b7b8_414c_a12a_9185be021368 o )  ) ) ( type_8ff6dcf5_9e2f_4aaf_bcd5_8e7053b22704_Class39 ( obj_96d9e49b_b7b8_414c_a12a_9185be021368 o )  ) )):named c10))
(assert (! (exists ((o Int)) (and (and (and (and (and (and (and (and (and ( type_8ff6dcf5_9e2f_4aaf_bcd5_8e7053b22704_Class19 ( obj_96d9e49b_b7b8_414c_a12a_9185be021368 o )  )  ( type_8ff6dcf5_9e2f_4aaf_bcd5_8e7053b22704_Class45 ( obj_96d9e49b_b7b8_414c_a12a_9185be021368 o )  ) ) ( type_8ff6dcf5_9e2f_4aaf_bcd5_8e7053b22704_Class12 ( obj_96d9e49b_b7b8_414c_a12a_9185be021368 o )  ) ) ( type_8ff6dcf5_9e2f_4aaf_bcd5_8e7053b22704_Class55 ( obj_96d9e49b_b7b8_414c_a12a_9185be021368 o )  ) ) ( type_8ff6dcf5_9e2f_4aaf_bcd5_8e7053b22704_Class33 ( obj_96d9e49b_b7b8_414c_a12a_9185be021368 o )  ) ) ( type_8ff6dcf5_9e2f_4aaf_bcd5_8e7053b22704_Class22 ( obj_96d9e49b_b7b8_414c_a12a_9185be021368 o )  ) ) ( type_8ff6dcf5_9e2f_4aaf_bcd5_8e7053b22704_Class29 ( obj_96d9e49b_b7b8_414c_a12a_9185be021368 o )  ) ) ( type_8ff6dcf5_9e2f_4aaf_bcd5_8e7053b22704_Class39 ( obj_96d9e49b_b7b8_414c_a12a_9185be021368 o )  ) ) ( type_8ff6dcf5_9e2f_4aaf_bcd5_8e7053b22704_Class50 ( obj_96d9e49b_b7b8_414c_a12a_9185be021368 o )  ) ) ( type_8ff6dcf5_9e2f_4aaf_bcd5_8e7053b22704_Class41 ( obj_96d9e49b_b7b8_414c_a12a_9185be021368 o )  ) )):named c11))
(assert (! (exists ((o Int)) ( type_8ff6dcf5_9e2f_4aaf_bcd5_8e7053b22704_Class2 ( obj_96d9e49b_b7b8_414c_a12a_9185be021368 o )  ) ):named c12))
(assert (! (exists ((o Int)) ( type_8ff6dcf5_9e2f_4aaf_bcd5_8e7053b22704_Class20 ( obj_96d9e49b_b7b8_414c_a12a_9185be021368 o )  ) ):named c13))
(assert (! (exists ((o Int)) (and (and (and (and (and (and (and (and (and ( type_8ff6dcf5_9e2f_4aaf_bcd5_8e7053b22704_Class21 ( obj_96d9e49b_b7b8_414c_a12a_9185be021368 o )  )  ( type_8ff6dcf5_9e2f_4aaf_bcd5_8e7053b22704_Class45 ( obj_96d9e49b_b7b8_414c_a12a_9185be021368 o )  ) ) ( type_8ff6dcf5_9e2f_4aaf_bcd5_8e7053b22704_Class12 ( obj_96d9e49b_b7b8_414c_a12a_9185be021368 o )  ) ) ( type_8ff6dcf5_9e2f_4aaf_bcd5_8e7053b22704_Class33 ( obj_96d9e49b_b7b8_414c_a12a_9185be021368 o )  ) ) ( type_8ff6dcf5_9e2f_4aaf_bcd5_8e7053b22704_Class22 ( obj_96d9e49b_b7b8_414c_a12a_9185be021368 o )  ) ) ( type_8ff6dcf5_9e2f_4aaf_bcd5_8e7053b22704_Class16 ( obj_96d9e49b_b7b8_414c_a12a_9185be021368 o )  ) ) ( type_8ff6dcf5_9e2f_4aaf_bcd5_8e7053b22704_Class29 ( obj_96d9e49b_b7b8_414c_a12a_9185be021368 o )  ) ) ( type_8ff6dcf5_9e2f_4aaf_bcd5_8e7053b22704_Class39 ( obj_96d9e49b_b7b8_414c_a12a_9185be021368 o )  ) ) ( type_8ff6dcf5_9e2f_4aaf_bcd5_8e7053b22704_Class41 ( obj_96d9e49b_b7b8_414c_a12a_9185be021368 o )  ) ) ( type_8ff6dcf5_9e2f_4aaf_bcd5_8e7053b22704_Class51 ( obj_96d9e49b_b7b8_414c_a12a_9185be021368 o )  ) )):named c14))
(assert (! (exists ((o Int)) (and ( type_8ff6dcf5_9e2f_4aaf_bcd5_8e7053b22704_Class22 ( obj_96d9e49b_b7b8_414c_a12a_9185be021368 o )  )  ( type_8ff6dcf5_9e2f_4aaf_bcd5_8e7053b22704_Class39 ( obj_96d9e49b_b7b8_414c_a12a_9185be021368 o )  ) )):named c15))
(assert (! (exists ((o Int)) (and (and (and (and ( type_8ff6dcf5_9e2f_4aaf_bcd5_8e7053b22704_Class23 ( obj_96d9e49b_b7b8_414c_a12a_9185be021368 o )  )  ( type_8ff6dcf5_9e2f_4aaf_bcd5_8e7053b22704_Class25 ( obj_96d9e49b_b7b8_414c_a12a_9185be021368 o )  ) ) ( type_8ff6dcf5_9e2f_4aaf_bcd5_8e7053b22704_Class24 ( obj_96d9e49b_b7b8_414c_a12a_9185be021368 o )  ) ) ( type_8ff6dcf5_9e2f_4aaf_bcd5_8e7053b22704_Class39 ( obj_96d9e49b_b7b8_414c_a12a_9185be021368 o )  ) ) ( type_8ff6dcf5_9e2f_4aaf_bcd5_8e7053b22704_Class5 ( obj_96d9e49b_b7b8_414c_a12a_9185be021368 o )  ) )):named c16))
(assert (! (exists ((o Int)) (and (and ( type_8ff6dcf5_9e2f_4aaf_bcd5_8e7053b22704_Class24 ( obj_96d9e49b_b7b8_414c_a12a_9185be021368 o )  )  ( type_8ff6dcf5_9e2f_4aaf_bcd5_8e7053b22704_Class25 ( obj_96d9e49b_b7b8_414c_a12a_9185be021368 o )  ) ) ( type_8ff6dcf5_9e2f_4aaf_bcd5_8e7053b22704_Class39 ( obj_96d9e49b_b7b8_414c_a12a_9185be021368 o )  ) )):named c17))
(assert (! (exists ((o Int)) (and ( type_8ff6dcf5_9e2f_4aaf_bcd5_8e7053b22704_Class25 ( obj_96d9e49b_b7b8_414c_a12a_9185be021368 o )  )  ( type_8ff6dcf5_9e2f_4aaf_bcd5_8e7053b22704_Class39 ( obj_96d9e49b_b7b8_414c_a12a_9185be021368 o )  ) )):named c18))
(assert (! (exists ((o Int)) ( type_8ff6dcf5_9e2f_4aaf_bcd5_8e7053b22704_Class26 ( obj_96d9e49b_b7b8_414c_a12a_9185be021368 o )  ) ):named c19))
(assert (! (exists ((o Int)) ( type_8ff6dcf5_9e2f_4aaf_bcd5_8e7053b22704_Class27 ( obj_96d9e49b_b7b8_414c_a12a_9185be021368 o )  ) ):named c20))
(assert (! (exists ((o Int)) (and (and (and (and (and (and (and ( type_8ff6dcf5_9e2f_4aaf_bcd5_8e7053b22704_Class28 ( obj_96d9e49b_b7b8_414c_a12a_9185be021368 o )  )  ( type_8ff6dcf5_9e2f_4aaf_bcd5_8e7053b22704_Class45 ( obj_96d9e49b_b7b8_414c_a12a_9185be021368 o )  ) ) ( type_8ff6dcf5_9e2f_4aaf_bcd5_8e7053b22704_Class12 ( obj_96d9e49b_b7b8_414c_a12a_9185be021368 o )  ) ) ( type_8ff6dcf5_9e2f_4aaf_bcd5_8e7053b22704_Class33 ( obj_96d9e49b_b7b8_414c_a12a_9185be021368 o )  ) ) ( type_8ff6dcf5_9e2f_4aaf_bcd5_8e7053b22704_Class22 ( obj_96d9e49b_b7b8_414c_a12a_9185be021368 o )  ) ) ( type_8ff6dcf5_9e2f_4aaf_bcd5_8e7053b22704_Class29 ( obj_96d9e49b_b7b8_414c_a12a_9185be021368 o )  ) ) ( type_8ff6dcf5_9e2f_4aaf_bcd5_8e7053b22704_Class39 ( obj_96d9e49b_b7b8_414c_a12a_9185be021368 o )  ) ) ( type_8ff6dcf5_9e2f_4aaf_bcd5_8e7053b22704_Class41 ( obj_96d9e49b_b7b8_414c_a12a_9185be021368 o )  ) )):named c21))
(assert (! (exists ((o Int)) (and (and (and (and (and (and ( type_8ff6dcf5_9e2f_4aaf_bcd5_8e7053b22704_Class29 ( obj_96d9e49b_b7b8_414c_a12a_9185be021368 o )  )  ( type_8ff6dcf5_9e2f_4aaf_bcd5_8e7053b22704_Class45 ( obj_96d9e49b_b7b8_414c_a12a_9185be021368 o )  ) ) ( type_8ff6dcf5_9e2f_4aaf_bcd5_8e7053b22704_Class12 ( obj_96d9e49b_b7b8_414c_a12a_9185be021368 o )  ) ) ( type_8ff6dcf5_9e2f_4aaf_bcd5_8e7053b22704_Class33 ( obj_96d9e49b_b7b8_414c_a12a_9185be021368 o )  ) ) ( type_8ff6dcf5_9e2f_4aaf_bcd5_8e7053b22704_Class22 ( obj_96d9e49b_b7b8_414c_a12a_9185be021368 o )  ) ) ( type_8ff6dcf5_9e2f_4aaf_bcd5_8e7053b22704_Class39 ( obj_96d9e49b_b7b8_414c_a12a_9185be021368 o )  ) ) ( type_8ff6dcf5_9e2f_4aaf_bcd5_8e7053b22704_Class41 ( obj_96d9e49b_b7b8_414c_a12a_9185be021368 o )  ) )):named c22))
(assert (! (exists ((o Int)) (and (and (and ( type_8ff6dcf5_9e2f_4aaf_bcd5_8e7053b22704_Class3 ( obj_96d9e49b_b7b8_414c_a12a_9185be021368 o )  )  ( type_8ff6dcf5_9e2f_4aaf_bcd5_8e7053b22704_Class25 ( obj_96d9e49b_b7b8_414c_a12a_9185be021368 o )  ) ) ( type_8ff6dcf5_9e2f_4aaf_bcd5_8e7053b22704_Class24 ( obj_96d9e49b_b7b8_414c_a12a_9185be021368 o )  ) ) ( type_8ff6dcf5_9e2f_4aaf_bcd5_8e7053b22704_Class39 ( obj_96d9e49b_b7b8_414c_a12a_9185be021368 o )  ) )):named c23))
(assert (! (exists ((o Int)) (and ( type_8ff6dcf5_9e2f_4aaf_bcd5_8e7053b22704_Class30 ( obj_96d9e49b_b7b8_414c_a12a_9185be021368 o )  )  ( type_8ff6dcf5_9e2f_4aaf_bcd5_8e7053b22704_Class39 ( obj_96d9e49b_b7b8_414c_a12a_9185be021368 o )  ) )):named c24))
(assert (! (exists ((o Int)) (and (and (and (and (and ( type_8ff6dcf5_9e2f_4aaf_bcd5_8e7053b22704_Class31 ( obj_96d9e49b_b7b8_414c_a12a_9185be021368 o )  )  ( type_8ff6dcf5_9e2f_4aaf_bcd5_8e7053b22704_Class45 ( obj_96d9e49b_b7b8_414c_a12a_9185be021368 o )  ) ) ( type_8ff6dcf5_9e2f_4aaf_bcd5_8e7053b22704_Class12 ( obj_96d9e49b_b7b8_414c_a12a_9185be021368 o )  ) ) ( type_8ff6dcf5_9e2f_4aaf_bcd5_8e7053b22704_Class33 ( obj_96d9e49b_b7b8_414c_a12a_9185be021368 o )  ) ) ( type_8ff6dcf5_9e2f_4aaf_bcd5_8e7053b22704_Class22 ( obj_96d9e49b_b7b8_414c_a12a_9185be021368 o )  ) ) ( type_8ff6dcf5_9e2f_4aaf_bcd5_8e7053b22704_Class39 ( obj_96d9e49b_b7b8_414c_a12a_9185be021368 o )  ) )):named c25))
(assert (! (exists ((o Int)) ( type_8ff6dcf5_9e2f_4aaf_bcd5_8e7053b22704_Class32 ( obj_96d9e49b_b7b8_414c_a12a_9185be021368 o )  ) ):named c26))
(assert (! (exists ((o Int)) (and (and ( type_8ff6dcf5_9e2f_4aaf_bcd5_8e7053b22704_Class33 ( obj_96d9e49b_b7b8_414c_a12a_9185be021368 o )  )  ( type_8ff6dcf5_9e2f_4aaf_bcd5_8e7053b22704_Class22 ( obj_96d9e49b_b7b8_414c_a12a_9185be021368 o )  ) ) ( type_8ff6dcf5_9e2f_4aaf_bcd5_8e7053b22704_Class39 ( obj_96d9e49b_b7b8_414c_a12a_9185be021368 o )  ) )):named c27))
(assert (! (exists ((o Int)) (and (and (and ( type_8ff6dcf5_9e2f_4aaf_bcd5_8e7053b22704_Class34 ( obj_96d9e49b_b7b8_414c_a12a_9185be021368 o )  )  ( type_8ff6dcf5_9e2f_4aaf_bcd5_8e7053b22704_Class25 ( obj_96d9e49b_b7b8_414c_a12a_9185be021368 o )  ) ) ( type_8ff6dcf5_9e2f_4aaf_bcd5_8e7053b22704_Class24 ( obj_96d9e49b_b7b8_414c_a12a_9185be021368 o )  ) ) ( type_8ff6dcf5_9e2f_4aaf_bcd5_8e7053b22704_Class39 ( obj_96d9e49b_b7b8_414c_a12a_9185be021368 o )  ) )):named c28))
(assert (! (exists ((o Int)) (and (and ( type_8ff6dcf5_9e2f_4aaf_bcd5_8e7053b22704_Class35 ( obj_96d9e49b_b7b8_414c_a12a_9185be021368 o )  )  ( type_8ff6dcf5_9e2f_4aaf_bcd5_8e7053b22704_Class39 ( obj_96d9e49b_b7b8_414c_a12a_9185be021368 o )  ) ) ( type_8ff6dcf5_9e2f_4aaf_bcd5_8e7053b22704_Class30 ( obj_96d9e49b_b7b8_414c_a12a_9185be021368 o )  ) )):named c29))
(assert (! (exists ((o Int)) ( type_8ff6dcf5_9e2f_4aaf_bcd5_8e7053b22704_Class36 ( obj_96d9e49b_b7b8_414c_a12a_9185be021368 o )  ) ):named c30))
(assert (! (exists ((o Int)) ( type_8ff6dcf5_9e2f_4aaf_bcd5_8e7053b22704_Class37 ( obj_96d9e49b_b7b8_414c_a12a_9185be021368 o )  ) ):named c31))
(assert (! (exists ((o Int)) ( type_8ff6dcf5_9e2f_4aaf_bcd5_8e7053b22704_Class38 ( obj_96d9e49b_b7b8_414c_a12a_9185be021368 o )  ) ):named c32))
(assert (! (exists ((o Int)) ( type_8ff6dcf5_9e2f_4aaf_bcd5_8e7053b22704_Class39 ( obj_96d9e49b_b7b8_414c_a12a_9185be021368 o )  ) ):named c33))
(assert (! (exists ((o Int)) ( type_8ff6dcf5_9e2f_4aaf_bcd5_8e7053b22704_Class4 ( obj_96d9e49b_b7b8_414c_a12a_9185be021368 o )  ) ):named c34))
(assert (! (exists ((o Int)) (and (and (and (and (and (and (and (and (and ( type_8ff6dcf5_9e2f_4aaf_bcd5_8e7053b22704_Class40 ( obj_96d9e49b_b7b8_414c_a12a_9185be021368 o )  )  ( type_8ff6dcf5_9e2f_4aaf_bcd5_8e7053b22704_Class45 ( obj_96d9e49b_b7b8_414c_a12a_9185be021368 o )  ) ) ( type_8ff6dcf5_9e2f_4aaf_bcd5_8e7053b22704_Class12 ( obj_96d9e49b_b7b8_414c_a12a_9185be021368 o )  ) ) ( type_8ff6dcf5_9e2f_4aaf_bcd5_8e7053b22704_Class55 ( obj_96d9e49b_b7b8_414c_a12a_9185be021368 o )  ) ) ( type_8ff6dcf5_9e2f_4aaf_bcd5_8e7053b22704_Class33 ( obj_96d9e49b_b7b8_414c_a12a_9185be021368 o )  ) ) ( type_8ff6dcf5_9e2f_4aaf_bcd5_8e7053b22704_Class22 ( obj_96d9e49b_b7b8_414c_a12a_9185be021368 o )  ) ) ( type_8ff6dcf5_9e2f_4aaf_bcd5_8e7053b22704_Class29 ( obj_96d9e49b_b7b8_414c_a12a_9185be021368 o )  ) ) ( type_8ff6dcf5_9e2f_4aaf_bcd5_8e7053b22704_Class39 ( obj_96d9e49b_b7b8_414c_a12a_9185be021368 o )  ) ) ( type_8ff6dcf5_9e2f_4aaf_bcd5_8e7053b22704_Class50 ( obj_96d9e49b_b7b8_414c_a12a_9185be021368 o )  ) ) ( type_8ff6dcf5_9e2f_4aaf_bcd5_8e7053b22704_Class41 ( obj_96d9e49b_b7b8_414c_a12a_9185be021368 o )  ) )):named c35))
(assert (! (exists ((o Int)) (and (and (and (and (and ( type_8ff6dcf5_9e2f_4aaf_bcd5_8e7053b22704_Class41 ( obj_96d9e49b_b7b8_414c_a12a_9185be021368 o )  )  ( type_8ff6dcf5_9e2f_4aaf_bcd5_8e7053b22704_Class45 ( obj_96d9e49b_b7b8_414c_a12a_9185be021368 o )  ) ) ( type_8ff6dcf5_9e2f_4aaf_bcd5_8e7053b22704_Class12 ( obj_96d9e49b_b7b8_414c_a12a_9185be021368 o )  ) ) ( type_8ff6dcf5_9e2f_4aaf_bcd5_8e7053b22704_Class33 ( obj_96d9e49b_b7b8_414c_a12a_9185be021368 o )  ) ) ( type_8ff6dcf5_9e2f_4aaf_bcd5_8e7053b22704_Class22 ( obj_96d9e49b_b7b8_414c_a12a_9185be021368 o )  ) ) ( type_8ff6dcf5_9e2f_4aaf_bcd5_8e7053b22704_Class39 ( obj_96d9e49b_b7b8_414c_a12a_9185be021368 o )  ) )):named c36))
(assert (! (exists ((o Int)) (and ( type_8ff6dcf5_9e2f_4aaf_bcd5_8e7053b22704_Class42 ( obj_96d9e49b_b7b8_414c_a12a_9185be021368 o )  )  ( type_8ff6dcf5_9e2f_4aaf_bcd5_8e7053b22704_Class39 ( obj_96d9e49b_b7b8_414c_a12a_9185be021368 o )  ) )):named c37))
(assert (! (exists ((o Int)) ( type_8ff6dcf5_9e2f_4aaf_bcd5_8e7053b22704_Class43 ( obj_96d9e49b_b7b8_414c_a12a_9185be021368 o )  ) ):named c38))
(assert (! (exists ((o Int)) (and (and (and (and (and (and (and ( type_8ff6dcf5_9e2f_4aaf_bcd5_8e7053b22704_Class44 ( obj_96d9e49b_b7b8_414c_a12a_9185be021368 o )  )  ( type_8ff6dcf5_9e2f_4aaf_bcd5_8e7053b22704_Class45 ( obj_96d9e49b_b7b8_414c_a12a_9185be021368 o )  ) ) ( type_8ff6dcf5_9e2f_4aaf_bcd5_8e7053b22704_Class12 ( obj_96d9e49b_b7b8_414c_a12a_9185be021368 o )  ) ) ( type_8ff6dcf5_9e2f_4aaf_bcd5_8e7053b22704_Class33 ( obj_96d9e49b_b7b8_414c_a12a_9185be021368 o )  ) ) ( type_8ff6dcf5_9e2f_4aaf_bcd5_8e7053b22704_Class22 ( obj_96d9e49b_b7b8_414c_a12a_9185be021368 o )  ) ) ( type_8ff6dcf5_9e2f_4aaf_bcd5_8e7053b22704_Class29 ( obj_96d9e49b_b7b8_414c_a12a_9185be021368 o )  ) ) ( type_8ff6dcf5_9e2f_4aaf_bcd5_8e7053b22704_Class39 ( obj_96d9e49b_b7b8_414c_a12a_9185be021368 o )  ) ) ( type_8ff6dcf5_9e2f_4aaf_bcd5_8e7053b22704_Class41 ( obj_96d9e49b_b7b8_414c_a12a_9185be021368 o )  ) )):named c39))
(assert (! (exists ((o Int)) (and (and (and (and ( type_8ff6dcf5_9e2f_4aaf_bcd5_8e7053b22704_Class45 ( obj_96d9e49b_b7b8_414c_a12a_9185be021368 o )  )  ( type_8ff6dcf5_9e2f_4aaf_bcd5_8e7053b22704_Class12 ( obj_96d9e49b_b7b8_414c_a12a_9185be021368 o )  ) ) ( type_8ff6dcf5_9e2f_4aaf_bcd5_8e7053b22704_Class33 ( obj_96d9e49b_b7b8_414c_a12a_9185be021368 o )  ) ) ( type_8ff6dcf5_9e2f_4aaf_bcd5_8e7053b22704_Class22 ( obj_96d9e49b_b7b8_414c_a12a_9185be021368 o )  ) ) ( type_8ff6dcf5_9e2f_4aaf_bcd5_8e7053b22704_Class39 ( obj_96d9e49b_b7b8_414c_a12a_9185be021368 o )  ) )):named c40))
(assert (! (exists ((o Int)) (and (and ( type_8ff6dcf5_9e2f_4aaf_bcd5_8e7053b22704_Class46 ( obj_96d9e49b_b7b8_414c_a12a_9185be021368 o )  )  ( type_8ff6dcf5_9e2f_4aaf_bcd5_8e7053b22704_Class39 ( obj_96d9e49b_b7b8_414c_a12a_9185be021368 o )  ) ) ( type_8ff6dcf5_9e2f_4aaf_bcd5_8e7053b22704_Class5 ( obj_96d9e49b_b7b8_414c_a12a_9185be021368 o )  ) )):named c41))
(assert (! (exists ((o Int)) ( type_8ff6dcf5_9e2f_4aaf_bcd5_8e7053b22704_Class47 ( obj_96d9e49b_b7b8_414c_a12a_9185be021368 o )  ) ):named c42))
(assert (! (exists ((o Int)) (and (and (and (and (and (and (and (and (and ( type_8ff6dcf5_9e2f_4aaf_bcd5_8e7053b22704_Class48 ( obj_96d9e49b_b7b8_414c_a12a_9185be021368 o )  )  ( type_8ff6dcf5_9e2f_4aaf_bcd5_8e7053b22704_Class45 ( obj_96d9e49b_b7b8_414c_a12a_9185be021368 o )  ) ) ( type_8ff6dcf5_9e2f_4aaf_bcd5_8e7053b22704_Class12 ( obj_96d9e49b_b7b8_414c_a12a_9185be021368 o )  ) ) ( type_8ff6dcf5_9e2f_4aaf_bcd5_8e7053b22704_Class55 ( obj_96d9e49b_b7b8_414c_a12a_9185be021368 o )  ) ) ( type_8ff6dcf5_9e2f_4aaf_bcd5_8e7053b22704_Class33 ( obj_96d9e49b_b7b8_414c_a12a_9185be021368 o )  ) ) ( type_8ff6dcf5_9e2f_4aaf_bcd5_8e7053b22704_Class22 ( obj_96d9e49b_b7b8_414c_a12a_9185be021368 o )  ) ) ( type_8ff6dcf5_9e2f_4aaf_bcd5_8e7053b22704_Class29 ( obj_96d9e49b_b7b8_414c_a12a_9185be021368 o )  ) ) ( type_8ff6dcf5_9e2f_4aaf_bcd5_8e7053b22704_Class39 ( obj_96d9e49b_b7b8_414c_a12a_9185be021368 o )  ) ) ( type_8ff6dcf5_9e2f_4aaf_bcd5_8e7053b22704_Class50 ( obj_96d9e49b_b7b8_414c_a12a_9185be021368 o )  ) ) ( type_8ff6dcf5_9e2f_4aaf_bcd5_8e7053b22704_Class41 ( obj_96d9e49b_b7b8_414c_a12a_9185be021368 o )  ) )):named c43))
(assert (! (exists ((o Int)) (and (and (and (and (and (and (and (and (and ( type_8ff6dcf5_9e2f_4aaf_bcd5_8e7053b22704_Class49 ( obj_96d9e49b_b7b8_414c_a12a_9185be021368 o )  )  ( type_8ff6dcf5_9e2f_4aaf_bcd5_8e7053b22704_Class45 ( obj_96d9e49b_b7b8_414c_a12a_9185be021368 o )  ) ) ( type_8ff6dcf5_9e2f_4aaf_bcd5_8e7053b22704_Class12 ( obj_96d9e49b_b7b8_414c_a12a_9185be021368 o )  ) ) ( type_8ff6dcf5_9e2f_4aaf_bcd5_8e7053b22704_Class55 ( obj_96d9e49b_b7b8_414c_a12a_9185be021368 o )  ) ) ( type_8ff6dcf5_9e2f_4aaf_bcd5_8e7053b22704_Class33 ( obj_96d9e49b_b7b8_414c_a12a_9185be021368 o )  ) ) ( type_8ff6dcf5_9e2f_4aaf_bcd5_8e7053b22704_Class22 ( obj_96d9e49b_b7b8_414c_a12a_9185be021368 o )  ) ) ( type_8ff6dcf5_9e2f_4aaf_bcd5_8e7053b22704_Class29 ( obj_96d9e49b_b7b8_414c_a12a_9185be021368 o )  ) ) ( type_8ff6dcf5_9e2f_4aaf_bcd5_8e7053b22704_Class39 ( obj_96d9e49b_b7b8_414c_a12a_9185be021368 o )  ) ) ( type_8ff6dcf5_9e2f_4aaf_bcd5_8e7053b22704_Class50 ( obj_96d9e49b_b7b8_414c_a12a_9185be021368 o )  ) ) ( type_8ff6dcf5_9e2f_4aaf_bcd5_8e7053b22704_Class41 ( obj_96d9e49b_b7b8_414c_a12a_9185be021368 o )  ) )):named c44))
(assert (! (exists ((o Int)) (and ( type_8ff6dcf5_9e2f_4aaf_bcd5_8e7053b22704_Class5 ( obj_96d9e49b_b7b8_414c_a12a_9185be021368 o )  )  ( type_8ff6dcf5_9e2f_4aaf_bcd5_8e7053b22704_Class39 ( obj_96d9e49b_b7b8_414c_a12a_9185be021368 o )  ) )):named c45))
(assert (! (exists ((o Int)) (and (and (and (and (and (and (and (and ( type_8ff6dcf5_9e2f_4aaf_bcd5_8e7053b22704_Class50 ( obj_96d9e49b_b7b8_414c_a12a_9185be021368 o )  )  ( type_8ff6dcf5_9e2f_4aaf_bcd5_8e7053b22704_Class45 ( obj_96d9e49b_b7b8_414c_a12a_9185be021368 o )  ) ) ( type_8ff6dcf5_9e2f_4aaf_bcd5_8e7053b22704_Class12 ( obj_96d9e49b_b7b8_414c_a12a_9185be021368 o )  ) ) ( type_8ff6dcf5_9e2f_4aaf_bcd5_8e7053b22704_Class55 ( obj_96d9e49b_b7b8_414c_a12a_9185be021368 o )  ) ) ( type_8ff6dcf5_9e2f_4aaf_bcd5_8e7053b22704_Class33 ( obj_96d9e49b_b7b8_414c_a12a_9185be021368 o )  ) ) ( type_8ff6dcf5_9e2f_4aaf_bcd5_8e7053b22704_Class22 ( obj_96d9e49b_b7b8_414c_a12a_9185be021368 o )  ) ) ( type_8ff6dcf5_9e2f_4aaf_bcd5_8e7053b22704_Class29 ( obj_96d9e49b_b7b8_414c_a12a_9185be021368 o )  ) ) ( type_8ff6dcf5_9e2f_4aaf_bcd5_8e7053b22704_Class39 ( obj_96d9e49b_b7b8_414c_a12a_9185be021368 o )  ) ) ( type_8ff6dcf5_9e2f_4aaf_bcd5_8e7053b22704_Class41 ( obj_96d9e49b_b7b8_414c_a12a_9185be021368 o )  ) )):named c46))
(assert (! (exists ((o Int)) (and (and (and (and (and (and ( type_8ff6dcf5_9e2f_4aaf_bcd5_8e7053b22704_Class51 ( obj_96d9e49b_b7b8_414c_a12a_9185be021368 o )  )  ( type_8ff6dcf5_9e2f_4aaf_bcd5_8e7053b22704_Class45 ( obj_96d9e49b_b7b8_414c_a12a_9185be021368 o )  ) ) ( type_8ff6dcf5_9e2f_4aaf_bcd5_8e7053b22704_Class12 ( obj_96d9e49b_b7b8_414c_a12a_9185be021368 o )  ) ) ( type_8ff6dcf5_9e2f_4aaf_bcd5_8e7053b22704_Class33 ( obj_96d9e49b_b7b8_414c_a12a_9185be021368 o )  ) ) ( type_8ff6dcf5_9e2f_4aaf_bcd5_8e7053b22704_Class22 ( obj_96d9e49b_b7b8_414c_a12a_9185be021368 o )  ) ) ( type_8ff6dcf5_9e2f_4aaf_bcd5_8e7053b22704_Class16 ( obj_96d9e49b_b7b8_414c_a12a_9185be021368 o )  ) ) ( type_8ff6dcf5_9e2f_4aaf_bcd5_8e7053b22704_Class39 ( obj_96d9e49b_b7b8_414c_a12a_9185be021368 o )  ) )):named c47))
(assert (! (exists ((o Int)) (and (and (and (and (and ( type_8ff6dcf5_9e2f_4aaf_bcd5_8e7053b22704_Class52 ( obj_96d9e49b_b7b8_414c_a12a_9185be021368 o )  )  ( type_8ff6dcf5_9e2f_4aaf_bcd5_8e7053b22704_Class45 ( obj_96d9e49b_b7b8_414c_a12a_9185be021368 o )  ) ) ( type_8ff6dcf5_9e2f_4aaf_bcd5_8e7053b22704_Class12 ( obj_96d9e49b_b7b8_414c_a12a_9185be021368 o )  ) ) ( type_8ff6dcf5_9e2f_4aaf_bcd5_8e7053b22704_Class33 ( obj_96d9e49b_b7b8_414c_a12a_9185be021368 o )  ) ) ( type_8ff6dcf5_9e2f_4aaf_bcd5_8e7053b22704_Class22 ( obj_96d9e49b_b7b8_414c_a12a_9185be021368 o )  ) ) ( type_8ff6dcf5_9e2f_4aaf_bcd5_8e7053b22704_Class39 ( obj_96d9e49b_b7b8_414c_a12a_9185be021368 o )  ) )):named c48))
(assert (! (exists ((o Int)) ( type_8ff6dcf5_9e2f_4aaf_bcd5_8e7053b22704_Class53 ( obj_96d9e49b_b7b8_414c_a12a_9185be021368 o )  ) ):named c49))
(assert (! (exists ((o Int)) ( type_8ff6dcf5_9e2f_4aaf_bcd5_8e7053b22704_Class54 ( obj_96d9e49b_b7b8_414c_a12a_9185be021368 o )  ) ):named c50))
(assert (! (exists ((o Int)) (and (and (and (and (and (and (and ( type_8ff6dcf5_9e2f_4aaf_bcd5_8e7053b22704_Class55 ( obj_96d9e49b_b7b8_414c_a12a_9185be021368 o )  )  ( type_8ff6dcf5_9e2f_4aaf_bcd5_8e7053b22704_Class45 ( obj_96d9e49b_b7b8_414c_a12a_9185be021368 o )  ) ) ( type_8ff6dcf5_9e2f_4aaf_bcd5_8e7053b22704_Class12 ( obj_96d9e49b_b7b8_414c_a12a_9185be021368 o )  ) ) ( type_8ff6dcf5_9e2f_4aaf_bcd5_8e7053b22704_Class33 ( obj_96d9e49b_b7b8_414c_a12a_9185be021368 o )  ) ) ( type_8ff6dcf5_9e2f_4aaf_bcd5_8e7053b22704_Class22 ( obj_96d9e49b_b7b8_414c_a12a_9185be021368 o )  ) ) ( type_8ff6dcf5_9e2f_4aaf_bcd5_8e7053b22704_Class29 ( obj_96d9e49b_b7b8_414c_a12a_9185be021368 o )  ) ) ( type_8ff6dcf5_9e2f_4aaf_bcd5_8e7053b22704_Class39 ( obj_96d9e49b_b7b8_414c_a12a_9185be021368 o )  ) ) ( type_8ff6dcf5_9e2f_4aaf_bcd5_8e7053b22704_Class41 ( obj_96d9e49b_b7b8_414c_a12a_9185be021368 o )  ) )):named c51))
(assert (! (exists ((o Int)) ( type_8ff6dcf5_9e2f_4aaf_bcd5_8e7053b22704_Class6 ( obj_96d9e49b_b7b8_414c_a12a_9185be021368 o )  ) ):named c52))
(assert (! (exists ((o Int)) (and (and (and (and (and (and (and (and (and ( type_8ff6dcf5_9e2f_4aaf_bcd5_8e7053b22704_Class7 ( obj_96d9e49b_b7b8_414c_a12a_9185be021368 o )  )  ( type_8ff6dcf5_9e2f_4aaf_bcd5_8e7053b22704_Class45 ( obj_96d9e49b_b7b8_414c_a12a_9185be021368 o )  ) ) ( type_8ff6dcf5_9e2f_4aaf_bcd5_8e7053b22704_Class12 ( obj_96d9e49b_b7b8_414c_a12a_9185be021368 o )  ) ) ( type_8ff6dcf5_9e2f_4aaf_bcd5_8e7053b22704_Class55 ( obj_96d9e49b_b7b8_414c_a12a_9185be021368 o )  ) ) ( type_8ff6dcf5_9e2f_4aaf_bcd5_8e7053b22704_Class33 ( obj_96d9e49b_b7b8_414c_a12a_9185be021368 o )  ) ) ( type_8ff6dcf5_9e2f_4aaf_bcd5_8e7053b22704_Class22 ( obj_96d9e49b_b7b8_414c_a12a_9185be021368 o )  ) ) ( type_8ff6dcf5_9e2f_4aaf_bcd5_8e7053b22704_Class29 ( obj_96d9e49b_b7b8_414c_a12a_9185be021368 o )  ) ) ( type_8ff6dcf5_9e2f_4aaf_bcd5_8e7053b22704_Class39 ( obj_96d9e49b_b7b8_414c_a12a_9185be021368 o )  ) ) ( type_8ff6dcf5_9e2f_4aaf_bcd5_8e7053b22704_Class50 ( obj_96d9e49b_b7b8_414c_a12a_9185be021368 o )  ) ) ( type_8ff6dcf5_9e2f_4aaf_bcd5_8e7053b22704_Class41 ( obj_96d9e49b_b7b8_414c_a12a_9185be021368 o )  ) )):named c53))
(assert (! (exists ((o Int)) (and ( type_8ff6dcf5_9e2f_4aaf_bcd5_8e7053b22704_Class8 ( obj_96d9e49b_b7b8_414c_a12a_9185be021368 o )  )  ( type_8ff6dcf5_9e2f_4aaf_bcd5_8e7053b22704_Class39 ( obj_96d9e49b_b7b8_414c_a12a_9185be021368 o )  ) )):named c54))
(assert (! (exists ((o Int)) ( type_8ff6dcf5_9e2f_4aaf_bcd5_8e7053b22704_Class9 ( obj_96d9e49b_b7b8_414c_a12a_9185be021368 o )  ) ):named c55))

 ;end of formula 